NAME: random-65-9994
TYPE: TSP
COMMENT: size=65 seed=9994
DIMENSION: 132
EDGE_WEIGHT_TYPE: EUC_2D
NODE_COORD_SECTION
+0 158 348
-0 158 348
+1 792 732
-1 646 484
+2 626 119
-2 56 433
+3 360 533
-3 580 411
+4 609 454
-4 303 132
+5 898 625
-5 504 252
+6 608 300
-6 813 187
+7 525 461
-7 659 845
+8 494 720
-8 808 42
+9 792 433
-9 638 877
+10 402 75
-10 8 721
+11 473 808
-11 768 327
+12 761 291
-12 974 304
+13 480 27
-13 262 452
+14 542 587
-14 178 147
+15 141 830
-15 833 220
+16 774 290
-16 765 370
+17 895 563
-17 624 281
+18 647 518
-18 592 389
+19 234 284
-19 780 27
+20 679 392
-20 0 634
+21 879 553
-21 391 473
+22 58 852
-22 362 795
+23 294 245
-23 659 866
+24 358 708
-24 295 439
+25 251 246
-25 884 78
+26 386 541
-26 645 108
+27 609 869
-27 437 348
+28 856 356
-28 322 707
+29 536 84
-29 318 487
+30 317 290
-30 673 372
+31 234 21
-31 991 961
+32 835 297
-32 340 958
+33 714 465
-33 213 596
+34 712 50
-34 378 444
+35 101 458
-35 546 98
+36 235 265
-36 361 611
+37 197 310
-37 29 977
+38 857 674
-38 346 326
+39 164 764
-39 406 69
+40 290 597
-40 292 323
+41 471 319
-41 166 843
+42 361 96
-42 427 39
+43 935 785
-43 566 263
+44 437 596
-44 840 468
+45 719 258
-45 20 549
+46 254 993
-46 247 989
+47 409 339
-47 413 960
+48 590 520
-48 459 303
+49 719 953
-49 596 514
+50 941 231
-50 437 538
+51 819 633
-51 17 575
+52 635 979
-52 21 998
+53 191 169
-53 539 390
+54 858 271
-54 870 320
+55 452 630
-55 420 147
+56 935 124
-56 972 62
+57 546 674
-57 277 222
+58 344 119
-58 970 377
+59 920 231
-59 557 865
+60 497 352
-60 86 497
+61 319 877
-61 649 207
+62 759 141
-62 701 996
+63 136 622
-63 811 328
+64 242 367
-64 817 643
+65 138 896
-65 178 968
PRECEDENCE_SECTION
+0 -0
+1 -1
+2 -2
+3 -3
+4 -4
+5 -5
+6 -6
+7 -7
+8 -8
+9 -9
+10 -10
+11 -11
+12 -12
+13 -13
+14 -14
+15 -15
+16 -16
+17 -17
+18 -18
+19 -19
+20 -20
+21 -21
+22 -22
+23 -23
+24 -24
+25 -25
+26 -26
+27 -27
+28 -28
+29 -29
+30 -30
+31 -31
+32 -32
+33 -33
+34 -34
+35 -35
+36 -36
+37 -37
+38 -38
+39 -39
+40 -40
+41 -41
+42 -42
+43 -43
+44 -44
+45 -45
+46 -46
+47 -47
+48 -48
+49 -49
+50 -50
+51 -51
+52 -52
+53 -53
+54 -54
+55 -55
+56 -56
+57 -57
+58 -58
+59 -59
+60 -60
+61 -61
+62 -62
+63 -63
+64 -64
+65 -65
EOF
